c Result of efficient AIG-to-CNF conversion using package CNF
p cnf 573 2091
2 3 -203 0
2 3 4 -171 0
2 3 -4 171 0
-2 -3 0
-2 4 171 203 0
-2 -4 -171 203 0
-3 541 542 543 0
3 -541 0
3 -543 0
3 -542 0
4 544 5 -155 0
-4 155 0
-4 -5 0
-4 -544 0
-5 6 148 0
5 -6 0
5 -148 0
-6 7 147 0
6 -7 0
6 -147 0
-7 561 8 0
7 -561 0
7 -8 0
-8 562 9 0
8 -562 0
8 -9 0
9 -568 10 0
-9 568 0
-9 -10 0
-10 11 115 132 146 0
10 -132 0
10 -146 0
10 -11 0
10 -115 0
-11 -12 25 105 0
-11 25 97 105 0
11 -25 0
11 -105 0
11 12 -97 0
-12 13 14 15 16 0
12 -16 0
12 -13 0
12 -15 0
12 -14 0
-13 544 545 546 3 0
13 -3 0
13 -546 0
13 -544 0
13 -545 0
-14 550 551 0
14 -550 0
14 -551 0
-15 547 548 549 0
15 -547 0
15 -549 0
15 -548 0
-16 17 18 0
16 -17 0
16 -18 0
-17 566 567 0
17 -566 0
17 -567 0
-18 561 562 19 20 0
18 -561 0
18 -20 0
18 -19 0
18 -562 0
-19 563 564 565 0
19 -563 0
19 -565 0
19 -564 0
-20 21 22 23 24 0
20 -24 0
20 -21 0
20 -23 0
20 -22 0
-21 559 560 0
21 -559 0
21 -560 0
-22 556 557 558 0
22 -556 0
22 -558 0
22 -557 0
-23 552 553 0
23 -552 0
23 -553 0
-24 554 555 0
24 -554 0
24 -555 0
-25 26 -51 63 0
-25 26 53 63 0
25 -26 0
25 -63 0
25 51 -53 0
26 568 -27 12 0
26 -568 12 -50 0
-26 -12 0
-26 -568 50 0
-26 568 27 0
27 -569 -40 0
27 569 -28 0
27 -569 -46 0
-27 569 28 0
-27 -569 40 46 0
-28 29 36 0
28 -29 0
28 -36 0
29 570 -30 0
29 -570 -33 0
-29 -570 33 0
-29 570 30 0
30 571 -31 0
30 -571 -32 0
-30 -571 32 0
-30 571 31 0
31 -554 -572 0
31 -553 572 0
-31 553 572 0
-31 554 -572 0
32 -556 -572 0
32 -555 572 0
-32 555 572 0
-32 556 -572 0
33 571 -34 0
33 -571 -35 0
-33 -571 35 0
-33 571 34 0
34 -558 -572 0
34 -557 572 0
-34 557 572 0
-34 558 -572 0
35 -560 -572 0
35 -559 572 0
-35 559 572 0
-35 560 -572 0
36 570 -37 0
36 -570 -38 0
-36 -570 38 0
-36 570 37 0
37 571 -32 0
37 -571 -34 0
-37 -571 34 0
-37 571 32 0
38 571 -35 0
38 -571 -39 0
-38 -571 39 0
-38 571 35 0
39 -562 -572 0
39 -561 572 0
-39 561 572 0
-39 562 -572 0
40 570 -41 0
40 -570 -43 0
-40 -570 43 0
-40 570 41 0
41 571 -39 0
41 -571 -42 0
-41 -571 42 0
-41 571 39 0
42 -564 -572 0
42 -563 572 0
-42 563 572 0
-42 564 -572 0
43 571 -44 0
43 -571 -45 0
-43 -571 45 0
-43 571 44 0
44 -566 -572 0
44 -565 572 0
-44 565 572 0
-44 566 -572 0
45 -568 -572 0
45 -567 572 0
-45 567 572 0
-45 568 -572 0
46 570 -47 0
46 -570 -48 0
-46 -570 48 0
-46 570 47 0
47 571 -42 0
47 -571 -44 0
-47 -571 44 0
-47 571 42 0
48 571 -45 0
48 -571 -49 0
-48 -571 49 0
-48 571 45 0
49 -570 -572 0
49 -569 572 0
-49 569 572 0
-49 570 -572 0
-50 -569 0
-50 -570 0
-50 571 572 0
50 569 570 -572 0
50 569 570 -571 0
-51 3 14 17 52 0
51 -52 0
51 -3 0
51 -17 0
51 -14 0
-52 544 545 546 15 0
52 -15 0
52 -546 0
52 -544 0
52 -545 0
53 568 18 -56 0
53 -568 18 -54 0
-53 -18 0
-53 -568 54 0
-53 568 56 0
54 569 -40 0
54 -569 -55 0
-54 -569 55 0
-54 569 40 0
55 570 -571 0
55 -569 570 572 0
-55 -570 0
-55 571 -572 0
-55 569 571 0
56 -569 -29 0
56 569 -57 60 0
-56 569 -60 0
-56 -569 29 0
-56 569 57 0
-57 570 -571 59 0
-57 570 571 58 0
57 -570 0
57 -571 -59 0
57 571 -58 0
58 -546 -572 0
58 -545 572 0
-58 545 572 0
-58 546 -572 0
59 -548 -572 0
59 -547 572 0
-59 547 572 0
-59 548 -572 0
60 -570 -571 62 0
60 -570 571 61 0
-60 570 0
-60 -571 -62 0
-60 571 -61 0
61 -550 -572 0
61 -549 572 0
-61 549 572 0
-61 550 -572 0
62 -552 -572 0
62 -551 572 0
-62 551 572 0
-62 552 -572 0
-63 -12 0
-63 64 71 0
63 12 -71 0
63 12 -64 0
-64 568 65 0
-64 -568 69 0
64 -568 -69 0
64 568 -65 0
-65 -569 36 0
-65 569 66 0
65 -569 -36 0
65 569 -66 0
-66 570 68 0
-66 -570 67 0
66 -570 -67 0
66 570 -68 0
67 -571 -31 0
67 571 -62 0
-67 571 62 0
-67 -571 31 0
68 571 -59 0
68 -571 -61 0
-68 -571 61 0
-68 571 59 0
69 569 -46 0
69 -569 570 -70 0
-69 -569 -570 0
-69 569 46 0
-69 -569 70 0
70 571 -572 0
-70 -571 0
-70 572 0
-71 568 -72 0
-71 -568 87 0
-71 568 80 0
71 -568 -87 0
71 568 72 -80 0
72 -569 73 77 0
72 -569 -570 73 0
-72 569 0
-72 -73 0
-72 570 -77 0
73 -570 -74 0
-73 570 0
-73 74 0
74 571 -75 0
74 -571 -76 0
-74 -571 76 0
-74 571 75 0
75 -557 -572 0
75 -556 572 0
-75 556 572 0
-75 557 -572 0
76 -559 -572 0
76 -558 572 0
-76 558 572 0
-76 559 -572 0
77 571 -78 0
77 -571 -79 0
-77 -571 79 0
-77 571 78 0
78 -553 -572 0
78 -552 572 0
-78 552 572 0
-78 553 -572 0
79 -555 -572 0
79 -554 572 0
-79 554 572 0
-79 555 -572 0
-80 569 -570 84 0
-80 569 570 81 0
80 -569 0
80 -570 -84 0
80 570 -81 0
81 571 -82 0
81 -571 -83 0
-81 -571 83 0
-81 571 82 0
82 -545 -572 0
82 -544 572 0
-82 544 572 0
-82 545 -572 0
83 -547 -572 0
83 -546 572 0
-83 546 572 0
-83 547 -572 0
84 571 -85 0
84 -571 -86 0
-84 -571 86 0
-84 571 85 0
85 -549 -572 0
85 -548 572 0
-85 548 572 0
-85 549 -572 0
86 -551 -572 0
86 -550 572 0
-86 550 572 0
-86 551 -572 0
87 569 -88 0
87 -569 570 -95 0
-87 -569 -570 0
-87 569 88 0
-87 -569 95 0
88 570 -89 0
88 -570 -92 0
-88 -570 92 0
-88 570 89 0
89 571 -90 0
89 -571 -91 0
-89 -571 91 0
-89 571 90 0
90 -561 -572 0
90 -560 572 0
-90 560 572 0
-90 561 -572 0
91 -563 -572 0
91 -562 572 0
-91 562 572 0
-91 563 -572 0
92 571 -93 0
92 -571 -94 0
-92 -571 94 0
-92 571 93 0
93 -565 -572 0
93 -564 572 0
-93 564 572 0
-93 565 -572 0
94 -567 -572 0
94 -566 572 0
-94 566 572 0
-94 567 -572 0
95 -570 -571 0
95 571 -96 0
95 -571 -572 0
-95 571 96 0
-95 570 -571 572 0
96 -569 -572 0
96 -568 572 0
-96 568 572 0
-96 569 -572 0
-97 569 101 0
-97 -569 88 98 0
97 -569 -88 0
97 569 -101 0
97 -569 -98 0
-98 570 100 0
-98 -570 89 99 0
98 -570 -89 0
98 570 -100 0
98 -570 -99 0
99 571 -76 0
99 -571 -90 0
-99 -571 90 0
-99 571 76 0
-100 571 75 79 0
-100 -571 75 76 0
100 -75 0
100 571 -79 0
100 -571 -76 0
-101 102 103 0
-101 -570 103 0
101 -103 0
101 570 -102 0
-102 -571 85 86 0
-102 571 83 85 0
102 -85 0
102 571 -83 0
102 -571 -86 0
-103 568 73 77 104 0
103 -104 0
103 -77 0
103 -568 0
103 -73 0
104 -570 571 -86 0
104 -570 -571 -78 0
-104 570 0
-104 -571 78 0
-104 571 86 0
105 568 -106 0
105 -106 -111 0
-105 106 0
-105 -568 111 0
106 -568 12 0
106 12 -107 110 0
-106 -12 0
-106 568 -110 0
-106 568 107 0
-107 569 -570 68 0
-107 569 570 108 0
107 -569 0
107 -570 -68 0
107 570 -108 0
108 -571 -58 0
108 571 -109 0
-108 571 109 0
-108 -571 58 0
109 -544 -572 0
109 -543 572 0
-109 543 572 0
-109 544 -572 0
110 -569 570 67 0
110 -569 -570 37 0
-110 569 0
-110 -570 -37 0
-110 570 -67 0
111 569 -112 0
111 -569 -113 0
-111 -569 113 0
-111 569 112 0
112 570 -33 0
112 -570 -41 0
-112 -570 41 0
-112 570 33 0
113 570 -43 0
113 -570 -114 0
-113 -570 114 0
-113 570 43 0
-114 570 571 -572 0
-114 569 571 572 0
114 -571 0
114 -569 572 0
114 -570 -572 0
-115 106 116 0
-115 -568 116 130 0
115 -116 0
115 -106 -130 0
115 568 -106 0
116 569 117 -123 0
116 569 117 -127 0
-116 -569 0
-116 -117 0
-116 123 127 0
-117 13 118 120 0
117 -13 0
117 -118 0
117 -120 0
-118 561 21 22 119 0
118 -561 0
118 -119 0
118 -22 0
118 -21 0
-119 552 553 554 14 0
119 -14 0
119 -554 0
119 -552 0
119 -553 0
-120 568 15 121 122 0
120 -568 0
120 -122 0
120 -121 0
120 -15 0
-121 555 562 0
121 -555 0
121 -562 0
-122 17 19 0
122 -17 0
122 -19 0
-123 -570 124 0
-123 570 92 126 0
123 570 -92 0
123 -570 -124 0
123 570 -126 0
-124 95 125 0
124 -95 0
124 -125 0
125 571 -94 0
125 -571 -96 0
-125 -571 96 0
-125 571 94 0
126 571 -91 0
126 -571 -93 0
-126 -571 93 0
-126 571 91 0
-127 113 128 129 0
127 -113 0
127 -129 0
127 -128 0
128 570 -125 0
128 -570 571 572 0
-128 -570 -571 0
-128 570 125 0
-128 -570 -572 0
129 570 -48 0
129 -570 571 -572 0
-129 -570 -571 0
-129 570 48 0
-129 -570 572 0
130 -569 -129 0
130 569 -131 0
-130 569 131 0
-130 -569 129 0
131 570 -38 0
131 -570 -47 0
-131 -570 47 0
-131 570 38 0
-132 -117 133 141 0
-132 111 133 141 0
132 -133 0
132 -141 0
132 -111 117 0
-133 -117 134 0
-133 54 69 134 0
133 -134 0
133 -69 117 0
133 -54 117 0
134 24 135 137 -140 0
-134 140 0
-134 -24 0
-134 -137 0
-134 -135 0
-135 568 569 136 0
-135 568 -123 136 0
135 -568 0
135 -136 0
135 -569 123 0
-136 17 21 23 52 0
136 -52 0
136 -17 0
136 -23 0
136 -21 0
-137 541 138 14 139 0
137 -541 0
137 -139 0
137 -14 0
137 -138 0
-138 542 543 0
138 -542 0
138 -543 0
-139 561 562 0
139 -561 0
139 -562 0
140 19 22 -98 0
140 -569 19 22 0
-140 -22 0
-140 -19 0
-140 569 98 0
141 546 120 -142 0
-141 -546 0
-141 -120 0
-141 142 0
-142 -143 0
-142 87 130 144 0
142 -87 143 0
142 143 -144 0
142 -130 143 0
-143 544 545 3 118 0
143 -544 0
143 -118 0
143 -3 0
143 -545 0
144 -569 -128 0
144 569 -145 0
-144 569 145 0
-144 -569 128 0
145 570 -99 0
145 -570 -126 0
-145 -570 126 0
-145 570 99 0
146 568 -106 0
146 -106 -144 0
-146 106 0
-146 -568 144 0
-147 550 122 0
147 -550 0
147 -122 0
-148 545 149 0
148 -545 0
148 -149 0
-149 150 151 0
149 -150 0
149 -151 0
-150 546 547 0
150 -546 0
150 -547 0
-151 548 549 152 153 0
151 -548 0
151 -153 0
151 -152 0
151 -549 0
-152 551 552 553 0
152 -551 0
152 -553 0
152 -552 0
-153 556 557 560 154 0
153 -154 0
153 -560 0
153 -556 0
153 -557 0
-154 554 555 558 559 0
154 -559 0
154 -558 0
154 -554 0
154 -555 0
155 156 -157 0
-155 -156 0
-155 157 0
156 -569 10 0
-156 569 0
-156 -10 0
157 158 -159 0
157 -158 -168 0
-157 -158 168 0
-157 158 159 0
158 -570 10 0
-158 570 0
-158 -10 0
159 -160 -167 0
159 160 -162 0
-159 160 162 0
-159 -160 167 0
160 -571 10 161 0
-160 571 0
-160 -10 0
-160 -161 0
161 569 570 -571 117 0
-161 -569 0
-161 -117 0
-161 571 0
-161 -570 0
-162 533 163 0
-162 534 -163 0
162 -534 -163 0
162 -533 163 0
163 10 -164 0
-163 -10 0
-163 164 0
164 -572 -117 0
164 -572 165 166 0
-164 572 0
-164 -165 117 0
-164 -166 117 0
165 569 570 -571 0
-165 571 0
-165 -570 0
-165 -569 0
166 569 570 571 -572 0
-166 572 0
-166 -571 0
-166 -569 0
-166 -570 0
-167 535 163 0
-167 536 -163 0
167 -536 -163 0
167 -535 163 0
168 -160 -170 0
168 160 -169 0
-168 160 169 0
-168 -160 170 0
-169 537 163 0
-169 538 -163 0
169 -538 -163 0
169 -537 163 0
-170 539 163 0
-170 540 -163 0
170 -540 -163 0
170 -539 163 0
171 544 545 172 -176 0
-171 -544 0
-171 176 0
-171 -172 0
-171 -545 0
-172 550 150 173 0
172 -173 0
172 -150 0
172 -550 0
-173 151 174 0
173 -151 0
173 -174 0
-174 562 175 0
174 -562 0
174 -175 0
-175 561 122 0
175 -561 0
175 -122 0
-176 9 177 0
-176 -9 192 0
176 -9 -192 0
176 9 -177 0
-177 156 178 0
-177 -156 185 0
177 -156 -185 0
177 156 -178 0
-178 158 182 0
-178 -158 179 0
178 -158 -179 0
178 158 -182 0
179 -160 -181 0
179 160 -180 0
-179 160 180 0
-179 -160 181 0
-180 529 163 0
-180 528 -163 0
180 -529 163 0
180 -528 -163 0
-181 527 163 0
-181 526 -163 0
181 -527 163 0
181 -526 -163 0
182 -160 -184 0
182 160 -183 0
-182 160 183 0
-182 -160 184 0
-183 533 163 0
-183 532 -163 0
183 -533 163 0
183 -532 -163 0
-184 531 163 0
-184 530 -163 0
184 -531 163 0
184 -530 -163 0
185 158 -186 0
185 -158 -189 0
-185 -158 189 0
-185 158 186 0
186 -160 -188 0
186 160 -187 0
-186 160 187 0
-186 -160 188 0
-187 525 163 0
-187 524 -163 0
187 -525 163 0
187 -524 -163 0
-188 523 163 0
-188 522 -163 0
188 -523 163 0
188 -522 -163 0
189 -160 -191 0
189 160 -190 0
-189 160 190 0
-189 -160 191 0
-190 521 163 0
-190 520 -163 0
190 -521 163 0
190 -520 -163 0
-191 519 163 0
-191 518 -163 0
191 -519 163 0
191 -518 -163 0
192 156 -193 0
192 -156 -200 0
-192 -156 200 0
-192 156 193 0
193 158 -194 0
193 -158 -197 0
-193 -158 197 0
-193 158 194 0
194 -160 -196 0
194 160 -195 0
-194 160 195 0
-194 -160 196 0
-195 517 163 0
-195 516 -163 0
195 -517 163 0
195 -516 -163 0
-196 515 163 0
-196 514 -163 0
196 -515 163 0
196 -514 -163 0
197 -160 -199 0
197 160 -198 0
-197 160 198 0
-197 -160 199 0
-198 513 163 0
-198 512 -163 0
198 -513 163 0
198 -512 -163 0
-199 511 163 0
-199 510 -163 0
199 -511 163 0
199 -510 -163 0
200 158 -201 0
-200 -158 0
-200 201 0
201 160 -202 0
-201 -160 0
-201 202 0
202 -509 163 0
-202 509 0
-202 -163 0
203 544 -204 0
203 544 -415 0
203 544 -467 0
-203 -544 0
-203 204 415 467 0
204 545 -275 0
204 545 -205 0
204 545 -352 0
-204 -545 0
-204 205 275 352 0
-205 214 245 0
-205 206 -210 245 0
205 -245 0
205 210 -214 0
205 -206 -214 0
-206 150 152 207 208 0
206 -208 0
206 -150 0
206 -207 0
206 -152 0
-207 548 549 0
207 -548 0
207 -549 0
-208 550 560 175 209 0
208 -550 0
208 -209 0
208 -175 0
208 -560 0
-209 556 557 8 154 0
209 -556 0
209 -154 0
209 -8 0
209 -557 0
210 156 -211 0
-210 -156 0
-210 211 0
211 158 -212 0
-211 -158 0
-211 212 0
212 160 -213 0
-212 -160 0
-212 213 0
213 -540 163 0
-213 540 0
-213 -163 0
214 -9 172 -230 0
214 9 172 -215 0
-214 -172 0
-214 -9 230 0
-214 9 215 0
-215 156 216 0
-215 -156 223 0
215 -156 -223 0
215 156 -216 0
-216 158 217 0
-216 -158 220 0
216 -158 -220 0
216 158 -217 0
-217 -160 219 0
-217 160 213 218 0
217 160 -213 0
217 -160 -219 0
217 160 -218 0
218 -539 -163 0
-218 539 0
-218 163 0
-219 538 163 0
-219 537 -163 0
219 -538 163 0
219 -537 -163 0
220 -160 -222 0
220 160 -221 0
-220 160 221 0
-220 -160 222 0
-221 536 163 0
-221 535 -163 0
221 -536 163 0
221 -535 -163 0
-222 534 163 0
-222 533 -163 0
222 -534 163 0
222 -533 -163 0
223 158 -224 0
223 -158 -227 0
-223 -158 227 0
-223 158 224 0
224 -160 -226 0
224 160 -225 0
-224 160 225 0
-224 -160 226 0
-225 532 163 0
-225 531 -163 0
225 -532 163 0
225 -531 -163 0
-226 530 163 0
-226 529 -163 0
226 -530 163 0
226 -529 -163 0
227 -160 -229 0
227 160 -228 0
-227 160 228 0
-227 -160 229 0
-228 528 163 0
-228 527 -163 0
228 -528 163 0
228 -527 -163 0
-229 526 163 0
-229 525 -163 0
229 -526 163 0
229 -525 -163 0
230 156 -231 0
230 -156 -238 0
-230 -156 238 0
-230 156 231 0
231 158 -232 0
231 -158 -235 0
-231 -158 235 0
-231 158 232 0
232 -160 -234 0
232 160 -233 0
-232 160 233 0
-232 -160 234 0
-233 524 163 0
-233 523 -163 0
233 -524 163 0
233 -523 -163 0
-234 522 163 0
-234 521 -163 0
234 -522 163 0
234 -521 -163 0
235 -160 -237 0
235 160 -236 0
-235 160 236 0
-235 -160 237 0
-236 520 163 0
-236 519 -163 0
236 -520 163 0
236 -519 -163 0
-237 518 163 0
-237 517 -163 0
237 -518 163 0
237 -517 -163 0
238 158 -239 0
238 -158 -242 0
-238 -158 242 0
-238 158 239 0
239 -160 -241 0
239 160 -240 0
-239 160 240 0
-239 -160 241 0
-240 516 163 0
-240 515 -163 0
240 -516 163 0
240 -515 -163 0
-241 514 163 0
-241 513 -163 0
241 -514 163 0
241 -513 -163 0
242 -160 -244 0
242 160 -243 0
-242 160 243 0
-242 -160 244 0
-243 512 163 0
-243 511 -163 0
243 -512 163 0
243 -511 -163 0
-244 510 163 0
-244 509 -163 0
244 -510 163 0
244 -509 -163 0
-245 -262 269 0
-245 246 -263 0
-245 -262 -263 0
-245 246 269 0
245 263 -269 0
245 -246 262 0
246 9 172 -247 0
246 -9 172 -210 0
-246 -172 0
-246 9 247 0
-246 -9 210 0
-247 156 255 0
-247 -156 248 0
247 -156 -248 0
247 156 -255 0
248 158 -249 0
248 -158 -252 0
-248 -158 252 0
-248 158 249 0
249 -160 -251 0
249 160 -250 0
-249 160 250 0
-249 -160 251 0
-250 532 163 0
-250 533 -163 0
250 -533 -163 0
250 -532 163 0
-251 534 163 0
-251 535 -163 0
251 -535 -163 0
251 -534 163 0
252 -160 -254 0
252 160 -253 0
-252 160 253 0
-252 -160 254 0
-253 536 163 0
-253 537 -163 0
253 -537 -163 0
253 -536 163 0
-254 538 163 0
-254 539 -163 0
254 -539 -163 0
254 -538 163 0
255 158 -256 0
255 -158 -259 0
-255 -158 259 0
-255 158 256 0
256 -160 -258 0
256 160 -257 0
-256 160 257 0
-256 -160 258 0
-257 524 163 0
-257 525 -163 0
257 -525 -163 0
257 -524 163 0
-258 526 163 0
-258 527 -163 0
258 -527 -163 0
258 -526 163 0
259 -160 -261 0
259 160 -260 0
-259 160 260 0
-259 -160 261 0
-260 528 163 0
-260 529 -163 0
260 -529 -163 0
260 -528 163 0
-261 530 163 0
-261 531 -163 0
261 -531 -163 0
261 -530 163 0
262 5 -230 0
-262 -5 0
-262 230 0
263 5 -156 -268 0
263 5 156 -264 0
-263 -5 0
-263 -156 268 0
-263 156 264 0
264 -158 -159 0
264 158 -265 0
-264 158 265 0
-264 -158 159 0
265 -160 -267 0
265 160 -266 0
-265 160 266 0
-265 -160 267 0
-266 529 163 0
-266 530 -163 0
266 -530 -163 0
266 -529 163 0
-267 531 163 0
-267 532 -163 0
267 -532 -163 0
267 -531 163 0
268 158 -168 0
-268 -158 0
-268 168 0
269 -9 172 -273 0
269 9 172 -270 0
-269 -172 0
-269 -9 273 0
-269 9 270 0
-270 156 272 0
-270 -156 271 0
270 -156 -271 0
270 156 -272 0
271 158 -189 0
271 -158 -194 0
-271 -158 194 0
-271 158 189 0
272 158 -179 0
272 -158 -186 0
-272 -158 186 0
-272 158 179 0
273 156 -274 0
-273 -156 0
-273 274 0
274 158 -197 0
274 -158 -201 0
-274 -158 201 0
-274 158 197 0
-275 282 294 315 0
-275 -276 294 315 0
275 -315 0
275 -294 0
275 276 -282 0
276 5 -156 -280 0
276 5 156 -277 0
-276 -5 0
-276 -156 280 0
-276 156 277 0
277 158 -278 0
277 -158 -279 0
-277 -158 279 0
-277 158 278 0
278 160 -267 0
278 -160 -162 0
-278 -160 162 0
-278 160 267 0
279 -160 -169 0
279 160 -167 0
-279 160 167 0
-279 -160 169 0
280 158 -281 0
-280 -158 0
-280 281 0
281 160 -170 0
-281 -160 0
-281 170 0
282 -9 172 -290 0
282 9 172 -283 0
-282 -172 0
-282 -9 290 0
-282 9 283 0
-283 156 287 0
-283 -156 284 0
283 -156 -284 0
283 156 -287 0
284 158 -285 0
284 -158 -286 0
-284 -158 286 0
-284 158 285 0
285 -160 -190 0
285 160 -188 0
-285 160 188 0
-285 -160 190 0
286 -160 -195 0
286 160 -191 0
-286 160 191 0
-286 -160 195 0
287 158 -288 0
287 -158 -289 0
-287 -158 289 0
-287 158 288 0
288 160 -184 0
288 -160 -180 0
-288 -160 180 0
-288 160 184 0
289 -160 -187 0
289 160 -181 0
-289 160 181 0
-289 -160 187 0
290 156 -291 0
-290 -156 0
-290 291 0
291 158 -292 0
291 -158 -293 0
-291 -158 293 0
-291 158 292 0
292 -160 -198 0
292 160 -196 0
-292 160 196 0
-292 -160 198 0
293 -160 -202 0
293 160 -199 0
-293 160 199 0
-293 -160 202 0
294 -149 -295 0
294 -295 307 0
-294 295 0
-294 149 -307 0
295 -9 172 -304 0
295 9 172 -296 0
-295 -172 0
-295 -9 304 0
-295 9 296 0
-296 156 300 0
-296 -156 297 0
296 -156 -297 0
296 156 -300 0
297 158 -298 0
297 -158 -299 0
-297 -158 299 0
-297 158 298 0
298 160 -261 0
298 -160 -250 0
-298 -160 250 0
-298 160 261 0
299 -160 -253 0
299 160 -251 0
-299 160 251 0
-299 -160 253 0
300 158 -301 0
300 -158 -303 0
-300 -158 303 0
-300 158 301 0
301 160 -302 0
301 -160 -257 0
-301 -160 257 0
-301 160 302 0
-302 522 163 0
-302 523 -163 0
302 -523 -163 0
302 -522 163 0
303 -160 -260 0
303 160 -258 0
-303 160 258 0
-303 -160 260 0
304 156 -305 0
-304 -156 0
-304 305 0
305 158 -306 0
-305 -158 0
-305 306 0
306 -160 -213 0
306 160 -254 0
-306 -160 213 0
-306 160 254 0
307 6 -308 0
-307 -6 0
-307 308 0
308 156 -309 0
308 -156 -312 0
-308 -156 312 0
-308 156 309 0
309 158 -310 0
309 -158 -311 0
-309 -158 311 0
-309 158 310 0
310 -160 -236 0
310 160 -234 0
-310 160 234 0
-310 -160 236 0
311 -160 -240 0
311 160 -237 0
-311 160 237 0
-311 -160 240 0
312 158 -313 0
312 -158 -314 0
-312 -158 314 0
-312 158 313 0
313 -160 -243 0
313 160 -241 0
-313 160 241 0
-313 -160 243 0
314 160 -244 0
-314 -160 0
-314 244 0
-315 316 328 0
-315 323 -324 328 0
315 -328 0
315 -316 -323 0
315 -316 324 0
316 -9 172 -321 0
316 9 172 -317 0
-316 -172 0
-316 -9 321 0
-316 9 317 0
-317 156 319 0
-317 -156 318 0
317 -156 -318 0
317 156 -319 0
318 158 -311 0
318 -158 -313 0
-318 -158 313 0
-318 158 311 0
319 -158 -310 0
319 158 -320 0
-319 158 320 0
-319 -158 310 0
320 -160 -233 0
320 160 -229 0
-320 160 229 0
-320 -160 233 0
321 156 -322 0
-321 -156 0
-321 322 0
322 158 -314 0
-322 -158 0
-322 314 0
-323 147 148 0
323 -147 0
323 -148 0
324 7 -325 0
-324 -7 0
-324 325 0
325 156 -326 0
325 -156 -327 0
-325 -156 327 0
-325 156 326 0
326 -158 -298 0
326 158 -303 0
-326 158 303 0
-326 -158 298 0
327 158 -299 0
327 -158 -306 0
-327 -158 306 0
-327 158 299 0
-328 -329 -331 341 0
-328 329 331 341 0
328 -341 0
328 -329 331 0
328 329 -331 0
329 206 -330 0
-329 -206 0
-329 330 0
330 156 -280 0
-330 -156 0
-330 280 0
331 -9 172 -340 0
331 9 172 -332 0
-331 -172 0
-331 -9 340 0
-331 9 332 0
-332 -156 287 0
-332 156 333 0
332 -156 -287 0
332 156 -333 0
-333 158 334 0
-333 -158 338 0
333 -158 -338 0
333 158 -334 0
-334 -160 337 0
-334 160 335 336 0
334 160 -335 0
334 -160 -337 0
334 160 -336 0
335 -538 -163 0
-335 538 0
-335 163 0
336 -539 163 0
-336 539 0
-336 -163 0
-337 537 163 0
-337 536 -163 0
337 -537 163 0
337 -536 -163 0
338 160 -339 0
338 -160 -183 0
-338 -160 183 0
-338 160 339 0
-339 535 163 0
-339 534 -163 0
339 -535 163 0
339 -534 -163 0
340 156 -284 0
340 -156 -291 0
-340 -156 291 0
-340 156 284 0
-341 -342 347 0
-341 343 -346 0
-341 343 347 0
-341 -342 -346 0
341 342 -343 0
341 346 -347 0
342 5 156 -248 0
342 5 -156 -211 0
-342 -5 0
-342 -156 211 0
-342 156 248 0
343 -9 172 -345 0
343 9 172 -344 0
-343 -172 0
-343 -9 345 0
-343 9 344 0
-344 -156 231 0
-344 156 223 0
344 156 -223 0
344 -156 -231 0
345 156 -238 0
-345 -156 0
-345 238 0
346 5 -156 -305 0
346 5 156 -297 0
-346 -5 0
-346 -156 305 0
-346 156 297 0
347 -9 172 -351 0
347 9 172 -348 0
-347 -172 0
-347 -9 351 0
-347 9 348 0
-348 156 349 0
-348 -156 309 0
348 -156 -309 0
348 156 -349 0
349 -158 -320 0
349 158 -350 0
-349 158 350 0
-349 -158 320 0
350 -160 -228 0
350 160 -226 0
-350 160 226 0
-350 -160 228 0
351 156 -312 0
-351 -156 0
-351 312 0
-352 353 388 399 407 0
352 -407 0
352 -399 0
352 -353 0
352 -388 0
-353 354 366 0
-353 323 -360 366 0
353 -366 0
353 -354 360 0
353 -323 -354 0
354 -9 172 -358 0
354 9 172 -355 0
-354 -172 0
-354 -9 358 0
-354 9 355 0
-355 156 357 0
-355 -156 356 0
355 -156 -356 0
355 156 -357 0
356 158 -286 0
356 -158 -292 0
-356 -158 292 0
-356 158 286 0
357 -158 -285 0
357 158 -289 0
-357 158 289 0
-357 -158 285 0
358 156 -359 0
-358 -156 0
-358 359 0
359 158 -293 0
-359 -158 0
-359 293 0
360 7 -361 0
-360 -7 0
-360 361 0
361 156 -362 0
361 -156 -365 0
-361 -156 365 0
-361 156 362 0
362 -158 -278 0
362 158 -363 0
-362 158 363 0
-362 -158 278 0
363 160 -364 0
363 -160 -266 0
-363 -160 266 0
-363 160 364 0
-364 527 163 0
-364 528 -163 0
364 -528 -163 0
364 -527 163 0
365 158 -279 0
365 -158 -281 0
-365 -158 281 0
-365 158 279 0
-366 -172 367 0
-366 367 -381 0
-366 367 382 0
366 -367 0
366 172 381 -382 0
-367 368 370 -375 -376 0
-367 -368 -370 -375 -376 0
-367 368 370 375 376 0
-367 -368 -370 375 376 0
367 368 -370 0
367 -368 370 0
367 375 -376 0
367 -375 376 0
368 206 -369 0
-368 -206 0
-368 369 0
369 156 -268 0
-369 -156 0
-369 268 0
370 -9 172 -374 0
370 9 172 -371 0
-370 -172 0
-370 -9 374 0
-370 9 371 0
-371 -156 272 0
-371 156 372 0
371 -156 -272 0
371 156 -372 0
-372 -158 182 0
-372 158 373 0
372 -158 -182 0
372 158 -373 0
-373 160 337 0
-373 -160 339 0
373 -160 -339 0
373 160 -337 0
374 156 -271 0
374 -156 -274 0
-374 -156 274 0
-374 156 271 0
375 206 -304 0
-375 -206 0
-375 304 0
376 9 172 -377 0
376 -9 172 -308 0
-376 -172 0
-376 9 377 0
-376 -9 308 0
-377 -156 349 0
-377 156 378 0
377 -156 -349 0
377 156 -378 0
-378 158 379 0
-378 -158 380 0
378 -158 -380 0
378 158 -379 0
-379 160 219 0
-379 -160 221 0
379 -160 -221 0
379 160 -219 0
380 -160 -225 0
380 160 -222 0
-380 160 222 0
-380 -160 225 0
381 544 3 5 -340 0
-381 -544 0
-381 340 0
-381 -5 0
-381 -3 0
-382 -9 330 0
-382 9 383 0
382 -9 -330 0
382 9 -383 0
-383 156 384 0
-383 -156 277 0
383 -156 -277 0
383 156 -384 0
384 -158 -363 0
384 158 -385 0
-384 158 385 0
-384 -158 363 0
385 -160 -387 0
385 160 -386 0
-385 160 386 0
-385 -160 387 0
-386 523 163 0
-386 524 -163 0
386 -524 -163 0
386 -523 163 0
-387 525 163 0
-387 526 -163 0
387 -526 -163 0
387 -525 163 0
388 -323 -389 0
388 -389 395 0
-388 389 0
-388 323 -395 0
389 -9 172 -393 0
389 9 172 -390 0
-389 -172 0
-389 -9 393 0
-389 9 390 0
-390 156 392 0
-390 -156 391 0
390 -156 -391 0
390 156 -392 0
391 158 -235 0
391 -158 -239 0
-391 -158 239 0
-391 158 235 0
392 158 -227 0
392 -158 -232 0
-392 -158 232 0
-392 158 227 0
393 156 -394 0
-393 -156 0
-393 394 0
394 158 -242 0
-394 -158 0
-394 242 0
395 7 -396 0
-395 -7 0
-395 396 0
396 156 -397 0
396 -156 -398 0
-396 -156 398 0
-396 156 397 0
397 -158 -249 0
397 158 -259 0
-397 158 259 0
-397 -158 249 0
398 -158 -212 0
398 158 -252 0
-398 158 252 0
-398 -158 212 0
399 -323 -400 0
399 -400 403 0
-399 400 0
-399 323 -403 0
400 -9 172 -402 0
400 9 172 -401 0
-400 -172 0
-400 -9 402 0
-400 9 401 0
-401 -156 193 0
-401 156 185 0
401 156 -185 0
401 -156 -193 0
402 156 -200 0
-402 -156 0
-402 200 0
403 7 -404 0
-403 -7 0
-403 404 0
404 -156 -157 0
404 156 -405 0
-404 156 405 0
-404 -156 157 0
405 -158 -265 0
405 158 -406 0
-405 158 406 0
-405 -158 265 0
406 160 -387 0
406 -160 -364 0
-406 -160 364 0
-406 160 387 0
-407 -149 409 0
-407 408 409 414 0
-407 149 408 -409 -414 0
407 -149 -409 0
407 149 409 -414 0
407 149 -408 0
407 -409 414 0
408 295 -307 0
-408 -295 0
-408 307 0
409 9 172 -410 0
409 -9 172 -369 0
-409 -172 0
-409 9 410 0
-409 -9 369 0
-410 156 411 0
-410 -156 264 0
410 -156 -264 0
410 156 -411 0
411 -158 -406 0
411 158 -412 0
-411 158 412 0
-411 -158 406 0
412 160 -413 0
412 -160 -386 0
-412 -160 386 0
-412 160 413 0
-413 521 163 0
-413 522 -163 0
413 -522 -163 0
413 -521 163 0
414 6 -374 0
-414 -6 0
-414 374 0
-415 416 -436 441 0
-415 416 439 441 0
415 -441 0
415 -416 0
415 436 -439 0
-416 -417 -430 432 0
-416 417 430 -431 0
-416 417 430 432 0
-416 -417 -430 -431 0
416 417 -430 0
416 -417 430 0
416 431 -432 0
417 9 418 -420 0
417 -9 -396 418 0
-417 -418 0
-417 9 420 0
-417 -9 396 0
-418 173 419 0
418 -173 0
418 -419 0
-419 545 550 150 0
419 -150 0
419 -550 0
419 -545 0
-420 -156 427 0
-420 156 421 424 0
420 156 -421 0
420 -156 -427 0
420 156 -424 0
421 158 -160 -422 0
421 158 160 -423 0
-421 -158 0
-421 -160 422 0
-421 160 423 0
-422 514 163 0
-422 515 -163 0
422 -515 -163 0
422 -514 163 0
-423 512 163 0
-423 513 -163 0
423 -513 -163 0
423 -512 163 0
424 -158 -160 -426 0
424 -158 160 -425 0
-424 158 0
-424 -160 426 0
-424 160 425 0
-425 516 163 0
-425 517 -163 0
425 -517 -163 0
425 -516 163 0
-426 518 163 0
-426 519 -163 0
426 -519 -163 0
426 -518 163 0
427 -158 -256 0
427 158 -428 0
-427 158 428 0
-427 -158 256 0
428 160 -429 0
428 -160 -302 0
-428 -160 302 0
-428 160 429 0
-429 520 163 0
-429 521 -163 0
429 -521 -163 0
429 -520 163 0
430 5 -393 0
-430 -5 0
-430 393 0
431 5 156 -365 0
-431 -5 0
-431 -156 0
-431 365 0
432 -9 418 -435 0
432 9 418 -433 0
-432 -418 0
-432 -9 435 0
-432 9 433 0
-433 -156 357 0
-433 156 434 0
433 -156 -357 0
433 156 -434 0
-434 158 338 0
-434 -158 288 0
434 -158 -288 0
434 158 -338 0
435 156 -356 0
435 -156 -359 0
-435 -156 359 0
-435 156 356 0
436 -9 418 -438 0
436 9 418 -437 0
-436 -418 0
-436 -9 438 0
-436 9 437 0
-437 156 427 0
-437 -156 397 0
437 -156 -397 0
437 156 -427 0
438 156 -398 0
-438 -156 0
-438 398 0
439 5 -440 0
-439 -5 0
-439 440 0
440 156 -391 0
440 -156 -394 0
-440 -156 394 0
-440 156 391 0
-441 442 -451 458 0
-441 442 456 458 0
441 -458 0
441 -442 0
441 451 -456 0
-442 263 443 0
-442 545 -269 443 0
442 -443 0
442 -263 269 0
442 -545 -263 0
-443 -444 -450 0
-443 444 450 0
443 444 -450 0
443 -444 450 0
444 9 418 -445 0
444 -9 -155 418 0
-444 -418 0
-444 9 445 0
-444 -9 155 0
-445 156 446 0
-445 -156 405 0
445 -156 -405 0
445 156 -446 0
446 -158 -412 0
446 158 -447 0
-446 158 447 0
-446 -158 412 0
447 -160 -449 0
447 160 -448 0
-447 160 448 0
-447 -160 449 0
-448 517 163 0
-448 518 -163 0
448 -518 -163 0
448 -517 163 0
-449 519 163 0
-449 520 -163 0
449 -520 -163 0
449 -519 163 0
450 5 -192 0
-450 -5 0
-450 192 0
451 -9 418 -455 0
451 9 418 -452 0
-451 -418 0
-451 -9 455 0
-451 9 452 0
-452 156 453 0
-452 -156 326 0
452 -156 -326 0
452 156 -453 0
453 -158 -301 0
453 158 -454 0
-453 158 454 0
-453 -158 301 0
454 -160 -429 0
454 160 -426 0
-454 160 426 0
-454 -160 429 0
455 156 -327 0
-455 -156 0
-455 327 0
456 5 -457 0
-456 -5 0
-456 457 0
457 156 -318 0
457 -156 -322 0
-457 -156 322 0
-457 156 318 0
-458 -460 463 0
-458 459 -464 0
-458 459 463 0
-458 -460 -464 0
458 -459 460 0
458 -463 464 0
459 5 -455 0
-459 -5 0
-459 455 0
460 9 418 -461 0
460 -9 418 -457 0
-460 -418 0
-460 9 461 0
-460 -9 457 0
-461 -156 319 0
-461 156 462 0
461 -156 -319 0
461 156 -462 0
-462 158 380 0
-462 -158 350 0
462 -158 -350 0
462 158 -380 0
463 5 -438 0
-463 -5 0
-463 438 0
464 9 418 -465 0
464 -9 418 -440 0
-464 -418 0
-464 9 465 0
-464 -9 440 0
-465 -156 392 0
-465 156 466 0
465 -156 -392 0
465 156 -466 0
-466 -158 224 0
-466 158 220 0
466 158 -220 0
466 -158 -224 0
-467 468 500 505 508 0
467 -508 0
467 -468 0
467 -505 0
467 -500 0
-468 -459 469 470 0
-468 460 469 470 0
468 -470 0
468 -469 0
468 459 -460 0
-469 -432 464 0
-469 431 -463 0
-469 -432 -463 0
-469 431 464 0
469 463 -464 0
469 -431 432 0
-470 471 492 498 499 0
-470 471 -492 -498 499 0
470 -499 0
470 -492 498 0
470 -471 0
470 492 -498 0
471 472 -482 0
471 472 473 -480 0
471 472 -473 480 0
-471 -472 0
-471 473 480 482 0
-471 -473 -480 482 0
-472 548 549 419 0
472 -419 0
472 -549 0
472 -548 0
473 9 474 -476 0
473 -9 -325 474 0
-473 -474 0
-473 9 476 0
-473 -9 325 0
-474 174 475 0
474 -174 0
474 -475 0
-475 152 153 0
475 -152 0
475 -153 0
-476 -156 453 0
-476 156 477 479 0
476 -156 -453 0
476 156 -479 0
476 156 -477 0
477 158 -160 -423 0
477 158 160 -478 0
-477 -158 0
-477 -160 423 0
-477 160 478 0
-478 510 163 0
-478 511 -163 0
478 -511 -163 0
478 -510 163 0
479 -158 -160 -425 0
479 -158 160 -422 0
-479 158 0
-479 -160 425 0
-479 160 422 0
480 -321 481 0
-480 321 0
-480 -481 0
-481 122 7 475 0
481 -122 0
481 -7 0
481 -475 0
482 402 474 -483 0
482 474 -481 -483 0
-482 -474 0
-482 483 0
-482 -402 481 0
-483 -9 404 0
-483 9 484 0
483 -9 -404 0
483 9 -484 0
-484 -156 446 0
-484 156 485 0
484 -156 -446 0
484 156 -485 0
-485 158 486 0
-485 -158 489 0
485 -158 -489 0
485 158 -486 0
-486 -160 488 0
-486 160 487 202 0
486 160 -487 0
486 -160 -488 0
486 160 -202 0
487 -510 -163 0
-487 510 0
-487 163 0
-488 511 163 0
-488 512 -163 0
488 -512 -163 0
488 -511 163 0
489 -160 -491 0
489 160 -490 0
-489 160 490 0
-489 -160 491 0
-490 513 163 0
-490 514 -163 0
490 -514 -163 0
490 -513 163 0
-491 515 163 0
-491 516 -163 0
491 -516 -163 0
491 -515 163 0
492 9 418 -493 0
492 -9 -361 418 0
-492 -418 0
-492 9 493 0
-492 -9 361 0
-493 -156 496 0
-493 156 494 495 0
493 156 -494 0
493 -156 -496 0
493 156 -495 0
494 158 -160 -490 0
494 158 160 -488 0
-494 -158 0
-494 -160 490 0
-494 160 488 0
495 -158 160 -491 0
495 -158 -160 -448 0
-495 158 0
-495 -160 448 0
-495 160 491 0
496 -158 -385 0
496 158 -497 0
-496 158 497 0
-496 -158 385 0
497 160 -449 0
497 -160 -413 0
-497 -160 413 0
-497 160 449 0
498 -358 472 481 0
-498 358 0
-498 -472 0
-498 -481 0
499 -545 -346 0
499 -346 347 0
-499 346 0
-499 545 -347 0
500 323 -503 0
500 323 -501 0
500 323 -504 0
-500 -323 0
-500 501 503 504 0
-501 324 502 0
-501 545 -316 502 0
501 -502 0
501 -545 -324 0
501 316 -324 0
502 -545 -360 0
502 354 -360 0
-502 360 0
-502 545 -354 0
503 -545 -395 0
503 389 -395 0
-503 395 0
-503 545 -389 0
504 -545 -403 0
504 400 -403 0
-504 403 0
-504 545 -400 0
-505 276 506 0
-505 545 -282 506 0
505 -506 0
505 -276 282 0
505 -545 -276 0
-506 262 507 0
-506 545 -246 507 0
506 -507 0
506 -545 -262 0
506 246 -262 0
507 -545 -342 0
507 -342 343 0
-507 342 0
-507 545 -343 0
-508 -439 451 0
-508 436 -456 0
-508 436 451 0
-508 -439 -456 0
508 -436 439 0
508 -451 456 0
-573 0
2 0

